6
6
3
25.4
2 7 0
2 8 0
3 9 2 1 2
8
42.1
1 52 0
4 19 2 1 6
2 85 1 1
5 23 1 3
2 9 2 3 8
1 17 1 4
6 12 1 6
4 28 1 6
8
27.8
6 35 0
4 43 2 1 6
6 1 1 1
6 70 1 3
5 59 2 3 8
4 51 1 4
5 66 1 6
6 16 1 6
2
30.5
3 10 1 2
1 5 0
8
33.6
2 53 0
5 21 2 1 6
2 53 1 1
3 95 1 3
2 2 2 3 8
5 9 1 4
3 81 1 6
5 20 1 6
8
44.1
1 43 0
6 36 2 1 6
1 84 1 1
3 36 1 3
5 42 2 3 8
5 40 1 4
3 34 1 6
6 86 1 6
